
 102   30
  10   10   10   10   10   10   10   10   10   10   10   10   10   10   10   10   10   10   10   10   10   10   10   10   10   10   10   10   10   10

   0   0   0   0   0   0   0   0   0   0   0   0   0   0   0   0   0   0   0   0   0   0   0   0   0   0   0   0   0   0   0  22 2 3 4 5 6 7 8 9 10 12 13 14 15 16 17 18 20 24 25 28 39 44 
   9   0   0   0   2   0   0   0   0   0   0   0   0   0   0   0   0   0   0   0   0   2   0   0   0   0   0   0   0   0   0  12 70 60 48 45 40 38 36 33 29 26 23 21 
  10   0   0   0   0   1   0   0   4   0   0   2   0   0   0   0   0   0   0   0   0   0   0   0   0   2   0   0   0   0   0  10 101 73 71 55 46 45 31 22 19 11 
   8   0   1   0   0   0   0   0   0   0   0   0   2   0   0   0   0   0   0   0   0   0   0   0   0   0   0   0   3   0   0  13 101 71 62 55 52 51 49 45 41 40 31 27 11 
   7   0   0   1   0   0   0   0   0   0   0   0   0   0   3   2   0   0   0   0   0   0   0   0   0   0   0   0   0   0   3  17 101 100 98 62 60 56 55 54 51 50 49 41 37 35 34 31 30 
   9   0   0   0   3   0   0   2   0   0   0   0   6   1   0   0   0   0   0   0   0   0   1   0   0   0   0   0   0   0   0  14 101 99 73 69 63 58 56 55 54 43 42 35 32 27 
  10   0   0   0   0   0   1   0   0   0   0   0   0   0   0   0   0   0   0   0   0   0   8   3   0   0   0   0   0   1   4  22 101 100 97 91 73 72 71 70 69 68 62 61 59 58 56 55 53 51 50 46 43 37 
   1   0   0   9   0   0   0   6   0   0   0   5   6   0   0   6   0   0   0   0   0   0   0   5   0   0   0   0   0   0   0  17 101 100 94 70 68 61 56 54 52 50 49 47 45 42 37 34 30 
   3   0  10   0   0   0   0   3   0   0   0   0   0   8   0   0   0   0   0   0   0   3   6   0   0   0   0   3   9   0   0  12 100 99 71 70 58 54 50 48 47 41 37 26 
   3   0   0   0   0   0   0   0   0   0   0   0   0   3   0   8   1   0   0   0   0   0   0   0   0   0   3   0   4   0   0  17 101 100 99 97 93 91 87 67 61 58 55 54 53 50 48 46 35 
   3   0   0   0   0   0   0   0   0   0   0   0   0   0   0   0   0   0   0   0   1   0   0   0   0   3   0   0   0   0   4  14 100 99 98 97 95 68 66 63 59 57 50 43 37 34 
   4   0   0   0   0   0   0  10   0   0   0   0   0   0   0   0   0   0   0   5   0   0   0   0   0   0   0   0   0   0   5  10 100 98 73 70 69 58 57 49 36 33 
   7   0   0   0   0   0   2   0   0   0   0   0   0   0   0   0   8   0   0   0   0   0   0   0   0   0   0   0   0   0   0  16 100 99 97 94 93 92 90 88 71 63 61 57 54 50 46 34 
   3   0   0   0   0   0   0   0   0   1   0   0   0   0   3   0   7   0   1   0   6   0   0   0   0   0   0   0   0   0   0  12 100 98 92 72 69 68 67 59 51 50 43 33 
   2   0   0   8   0   0   5   0   2   0   0   0   0   9   0  10   0   0   0   0   0   0   0   0   0   0   0   0   0   0   0  14 101 100 99 92 89 71 70 69 68 60 57 56 54 36 
   4   0   0   0   0   0   0   0   0   0   0   0   0   0   0   0   0   0   0   0   0   0   0   0   0   0   0   0   0   0   0  16 101 96 94 92 90 88 71 70 67 57 55 54 53 50 46 45 
   7   0   0   0   0  10   0   0   0   0   0   0   0   0   0   0  10   0   0   0   0   0   5   0   0   0   5   0   0   0   0  14 100 97 91 84 68 67 66 62 59 57 56 49 45 43 
   2   0   0   0   0   0   0   0   0   0   0   0   0   0   0   0   0   0   0   0   0   0   0   0   0   0   0   0   0   0   0  13 99 94 90 89 70 69 68 66 57 53 48 40 37 
   7   0   0   0   0   0   0   0   0   0   3   0   0   0   7   0   0   0   0   0  10   0   0   0   0   0   0   0   0   0   0  12 98 95 85 68 66 61 56 54 53 51 43 37 
   1   0   0   0   0   0   0   0   0   0   0   0   7   0   0   8   6   0   5   0   5   0   0   0   1   0  10   2   0   0   0  15 101 100 98 97 95 92 91 68 67 66 60 57 53 50 43 
  10   0   0   3   0   0   9   3   5   5   0   0   7   0   0   0   0   0   0   0   0   0   0   0   0   0   0   0   0   0   8  13 99 98 93 90 88 66 65 63 61 55 54 50 34 
   5   0   0   0  10   0   0   0   0   0   0   0   0   0   0   0   0   0   0   0   0   0   0   0   0   0   0   7   0   0   0  14 98 97 96 93 87 67 66 65 64 63 62 60 49 41 
   3   2   0   0   0   0   0   4   0   0   2   0   0   0   0   0   8   0   5   0   0   0   0   0   6   0   0   0   0   0   0  10 99 90 89 87 69 58 56 53 46 37 
  10   0   0   0   0   0   0   6   0   6   8   0  10   0   0   0   0   0   0   0   0   0   9   0   0   0   0   0   8   0   0  16 97 95 94 92 89 86 85 83 81 72 69 65 63 54 51 47 
   4   0   4   0   0   0   0   0   0   0   0   0   8   0   6   6   0   3   0   0   0  10   0   0   0   0   0   0   0   8   0  18 101 100 92 91 88 86 85 84 82 70 67 66 64 62 61 59 57 55 
   9   0   0   0   0   4   0   0   0   0   0   0   0   0   0   0   0   5   0   0   0   0   0   0   5   0   4   6   0   0   5  21 98 97 96 95 94 92 90 89 88 86 85 81 80 79 76 69 68 66 64 57 53 
   5   0   0   4   0   0   0   0   0   0   0   0   0   5   0   0   0   0   0   0   0   0   0   0   6   0   0   0   0   6   0  10 100 94 90 89 70 68 66 53 48 37 
  10   0   0   0   0   0   0   0   0   0   8  10   0   8   0   0   0   0   0   0   9   0   0   0   0   0   0   0   0   0   0  12 93 92 91 88 83 69 67 62 57 55 50 48 
   8   0   0   0   0   0   7   0   0   0   0   0   0   0   0   0   0   0   0   0   0   0   0   0   0   0   0   0   0   0   0  19 100 97 96 95 94 93 92 89 85 82 81 80 79 74 68 67 66 64 56 
   7   0   3   0   0   0   0   0   4   0   0   0   6   0   0   0   0   0   0   1   0   0   0   0   0   0   0   0   0   0   0  14 99 97 95 93 92 91 90 88 84 72 66 64 57 48 
   3   0   0   0   0   0   0   0   7   0   0   0   0   5   0   0   0   0   0   0   0   0   0   0   0   9   0   4   0   0   0  10 99 97 95 91 88 87 77 70 66 43 
  10   4   0   7   5   0   8   0   0   0   0   0   0   0   0   0   0   0   0   0   0   0   0   0   0   0   0   0   0   0   0  14 98 97 88 86 84 83 82 79 76 72 70 65 64 51 
   2   0   3   0   0   0   0   0   0   0   0   0   0   0   0   0   0   0   0   0   0   5   3   6  10   0   0   0   0   0   8  13 96 95 91 90 88 87 83 71 65 64 62 61 53 
   9   0   0   0   0   0   0   0   0   0   0   0   0   0   0   0   0  10   0   0   0   0   0   0   5   0   7   0   0   0   0  12 96 91 89 87 83 80 79 69 67 64 58 53 
   5   0   0   4   0   0   0   0   0   0   4   0   7   7   0   5   0   0   0   0   0   0   5   0   0   0   0   0   0   0   0  17 96 95 94 92 90 89 88 86 84 82 80 79 78 76 75 70 68 
   3   0   0   0   0   0   0   3   0   0   0   0   0   0   0   0   0   0   0   0   0   0   0   0   5   0   0   0   0   0   0  12 97 94 90 84 81 79 78 72 66 64 63 59 
   1  10   0   0   0   0   7   0  10   0   0   0   0   4   0   0   0   0   0   0   0   0   0   0   0   0   0   0   6   0   0  14 96 93 92 88 86 84 83 82 81 79 78 67 65 64 
   2   0   0   0   0   0   0   0   0   0   0   0   0   0   0   0   0   0   0   0   4   0   0   0   0   7   0   0   0   0   7  11 100 91 90 87 82 81 76 75 71 69 66 
   7   0   0   0   4   0   0   0   0   0   6   0   0   6   0   0   0   0   8   0  10   0   0   0   0   0   0   0   0   0   0   8 99 89 88 85 84 80 78 49 
   9   0   9   7   0   0   0   8   0   0   0   0   0   0   0   0   0   0   0   3   0   0   0   0   0   0   0   7   0   0   5  13 97 96 95 91 88 86 85 83 81 78 77 76 75 
   8   0   0   0   0   6   0   0   0   0   0   0   0   0   4   4   0   0   0   6   0   0   0   0   0   0   0   0   0   0   0  10 91 89 86 85 84 83 81 78 68 61 
   4   0   0   0   0   0   0   0   0   0   0   0   0   0   0   0   0   0   7   0   0   5   0   0   0   0   0   7   3   0   0   9 96 91 90 88 85 76 75 65 57 
   1   0   0   0   0   0   0   0   0   0   0   0   0   0   0   0   0   0   0   0   0   0   0   0   0   0   0   0   0   0   0   6 94 90 89 86 78 48 
  10   0   0   0   0   6   0   0   5   0   0   0   0   0   0   0   0   0   0   7   0   0   0   0   0   0   0   0   0   0   0  11 98 95 91 89 85 82 81 79 78 77 75 
   7   4   0   0   0   0   0   0   0   0   2   0   4   0   0   0   5   0   0   0   0   0   0   0   0   0   0   0   0   6   0  10 99 93 87 85 80 79 78 77 76 64 
   5   0   0   0   0   0   0   0   0   0  10   0   0   0   0   0   0   0   0   0   8   0   7   3   0   0   0   0   0   0   0   7 98 95 78 76 75 66 65 
  10   0   0   0   0   3   0   0   0   4   0   0   0   0   0   8   0   0   0   0   0   0   5  10   0   5   0   0   0   4   0   7 93 84 80 79 77 67 64 
   9   4   0   0   0   0   0   0   0   0   0   0   0   0   0   0   0   0   0   0   0   0   0   0   6   0   0   6   6   0   0   6 82 81 79 76 75 65 
   3   0   0   0   8   0   0   8   0   0   0   0   0   0   0   0   0   0   0   7   0   0   0   0   0   0   0   4   0   0   0   6 92 83 82 79 76 75 
   4   0   0   0   9   5   0   0   0   5   0   0   8   0   0   0   8   0   0   0   0   0   0   0   0   0   0   0   0   0   0   5 86 85 84 76 64 
   7   0   8   0   0   0   0   0   0   0   8   0   3   0   7   0   0   0   5   0   0   0   0   4   0   0   0   0   0   0   0   3 90 75 57 
   2  10   0   0   0   0   0   0   0   0   0   0   0   0   0   0   0   0   0   0   0   0   0   0   0   7   0   0   0   0   0   4 99 82 75 66 
   5   0   0   0   0   0   0   0   0   0   0   0   0   0   0   0   0   0   0   0   0   0   0   0   0   0   0   0   6   0   0   4 84 82 78 75 
   6   8   0   0   0   0   0   0   0   0   0   0   4   0   0   0   0   0   0   0   0   0   0   0   0   0   0   0   0   0   0   4 84 82 80 76 
  10   0   0   0   0   0   0   0   0   0   0   0   0   0   0   0   0   0   7   0   0   6   0   7   0   0   0  10   0   5   0   4 89 81 80 75 
   6   0   0   0   0   0   0   0   0   0   0  10   0   0   7   3   0   0   9   0   0   0   0   0   0   0   6   0   6  10   0   4 88 78 77 76 
   2   0   0   0   0   0   0   0   0   0   0   0   0   0   0   0   0   0   0   0   0   0   0   0   0   0   0   0   0   5   0   3 87 78 77 
   1   0   0   0   0   0   0   0   0   0   7   0   0   4   0   0   0   0   0   0   0   0   0   0   0   0   0   8   0   0   0   3 86 85 81 
   4   0   0   0   0   0   0   0   7   6   0   0   0   0   0   0   0   0   0   0   7   8   0   0   0   0   0   0   0   0   0   3 93 77 76 
   9   0   0   0   0   0   8   0   0   0   0   0   0   0   9   0   0   0   0   0   0   0   0   0   0   0   5   0   0   7   0   3 94 86 75 
   8   0   0   0   4   0   0   4   0   0   0   0   6   0   0   0   0   0   8   0   0   0   0   0   0   0   0   0   0   0  10   2 79 76 
   9   0   0   0   0   0   0   0   0   0   0   0   0   0   0   0   5   0   0   5   0   0   0   0  10   0   0   0   0   0   0   2 77 76 
   6   0   0   0   0   0   0   0   0   0   0   0   0   0   0   0   4   4   0   0   0  10   0   0   0   0   0   0   4   0   0   2 91 75 
   4   0   6   8   0   9   0   0   0   0   0   0   0  10   0   0   0   0   0   0   0   0   0  10   0   0   0   0   8   0   0   1 75 
   4   0   0   0   0   0   0   0   0   0   0   8   0   0   5   0   0   0   0   0   0   0   6   0   7   0   0   0   0   7   0   1 80 
   6   0   0   0   0   9   0   0   4   0   8   3   0   0   0   0   0   7   0   0   0   0   0   5   0   0   0   0   0   0   0   1 83 
  10   0   0   0   0   0   8   0  10   0   0   0   0   0   4   0   0   8   0   0   4   0   0   0   0  10   0   0   0   7   0   1 76 
   4   4   7   5   0   0   0   0   0   0   0   0   0   0   0   0   0   0   0   0   0   0   0   7   0   0   0   6   0   6   0   1 77 
   4   0   0   0   0   0   0   0   0   0   0   0   0   0   0   0   0   0   0   0   0   0   0   0   0   6   0   0   0   0  10   1 77 
   4   0   5   0   0   0   0  10   0   0   0   0   0   0   2   0   0   0   0   0   0   0   0   0   0   0   0   8  10   0   0   1 81 
   2   0   0   0   0   0   0  10   0   9   0   0   0   0   0   0   0   0   0   0   0   0   8   0   0   0   0   0   0   0   0   1 85 
   2   0   0   0   0   0   0   0   0   0   0   0   0   0   0   0   0   0   0   0   0   0   0   0   0   0   0   0   0   0   0   1 75 
   3   8   0   0   0   0   0   0   0   8   0   5   0   5   0   0   0   0   0   0   0   0   0   0   0   0   0   0   0   0   0   1 77 
   5   0   5   0   0   0   0   0   0   0   0   0   0   0   0   0   0   0   0   0   0   0   0   0   0   0   0   0   0   0   0   1 84 
   1   5   0   0   0   0   0   0   6   0   0   0   0   0   0   0   0   0   0   0   0   0   0   0   0   5   5   2   0   0   0   1 102
   6   0   0   0   0   0   0   0   0   0   0   0   0   0   0   0   0   0   0   0   0   0   0   0   0   0   0   7   0   0   0   1 102
   4   0   0   0   0   0   0   0   0   0   0   0   0   0   0   0   0   3   6   0   0   0   0   0   0   0   0   0   0   0   0   1 102
   3   0   0   0   0   0   4   0   0   0   9   0   0   0   0   0   0   0   0   0   0   0   0   0   0   0   0   0   0   0   0   1 102
   5   0   0   0   0   0   0   0   0   0   0   7   0   0   0   0   0   0   5   0   0   0   0   0   0   0   0   0   0   0   5   1 102
   9   0   0   7   0   0   0   0   0   0   0   0   0   0   0   0   0   0   0   0   0   0   0   3   0   0   5   0   0   0   0   1 102
   7   5   0   0   0   0   0   0   0   0   0   0   0   0   0   0   8   0   0   3   0   0   0   0   0   0   0   0   0   0   5   1 102
   4   0   0   0   0   0   0   0   0   0   0   0   0   0   0   0   7   0   0   0   0   0   0   0   0   0   0   0   0   0   7   1 102
   2   0   0   0   0   0   0   0   0   0   0   0   0   0   0   0   0   0   0   0   4   0   0   4   0   0   0   0   0   0   0   1 102
   6   0   0   0   0   0   0   0   0   0   0   0   0   0   0   0   0   0   0   0   0   4  10   0   0   0   0   0   0   0   0   1 102
   5   0   0   0   0   0   0   0   0   0   5   0   0  10   9   0   0   0   0   0   0   0   4   0   0   0   0   0   0   0   0   1 102
   7   0   7   0   0   0   0   0   0   0   0   0   0   0   0   6   7   0   0  10   0   0   0   5   0   0   8   0   0   0   0   1 102
   4   0  10   0   0   0   0   0   0   0   0   0   0   0   0   3   0   0   0   0   5   0   0   0   0   0   0   0   0   0   0   1 102
  10   0   0   0   0   0   0   0   0   0   0   5   0   0   0   7   0   0   0   0   0   0   0  10   0   0   0   0   0   0   0   1 102
   6   0   0   0   0   0   0   0   0   0   0   0   0   0   8   0   3   8   0  10   0   6   0   8   0   0   0   0   0   0   4   1 102
   6   0   0   0   0   0   0   0   0   0   4   0   0   0   0   0   0   0   0   0   0   7   0   6   0   0   0   0   0   0   0   1 102
   5   0   0   0   0   0   0   0   0   0   0   0   0   0   0   0   0   0   0   0   6   0   7   0   0   0   0   0   0   0   0   1 102
   5   0   6   0   0   0   7   0   0   0   0   0   0   6   0   0   6   0   0   0   0   0   0   0   0   0   0   0   0   0   0   1 102
   7   0   0   0   0   0   0   4   0   7   0   0   0   0   0   8   0   0   0   0   0   0   0   0   0   0   0   0   0   0   0   1 102
   6   0   0   0   0   7   0   0   0   0   0   0   0   0   0   0   0   0   0   0   0   0   0   0   0   0   0   0   5   0   0   1 102
   2   0   0   0   0   5   0   0   0   0   0   0   0   0   7   0   4   0   0   0   0   0   0   0   8   0   0   0   0   0   0   1 102
   6   0   0   0   0   0   0   0   0   0   6   0   0   0   0   0   0   0   0   0   0   0   0   0   5   0   9   0   0   0   0   1 102
   2   0   0   9   0   4   0   9   8   0   0   0   0   0   0   0   0   0   0   0   0   0   0   0   0   0   0   0   0   0   6   1 102
   5   0   0   0   9   0   0   0   0   0   0   5   0   0   3   0   0   0   0   0   0   0   0   6   0   0   5   0   0   0   0   1 102
   5   0   0   0   0   9   0   0   0   9   0   0   0   0   0   0   5   0   0   0   5   0   0   0   0   0   0   0   0   0   0   1 102
  10   8   0   0   0   0   0   0   0   0   0   0   0   5   8   0   0   0   0   9   6   0   0   0   0   0   0   9   0   0   0   1 102
  10   0   0   0   0   0   0   0   0   0   0   0   0   0  10   0   0   0   0   0   0   6   0   0   4   0   0   0   0   0   0   1 102
   0   0   0   0   0   0   0   0   0   0   0   0   0   0   0   0   0   0   0   0   0   0   0   0   0   0   0   0   0   0   0   0 
